29099.16,44.89,49.43
26789.7,48.76,53.69
28398.65,45.99,50.65
29172.68,44.77,49.31
25926.0,50.38,55.48
29088.66,44.9,49.45
28934.57,45.14,49.71
28891.74,45.21,49.79
28036.51,46.59,51.31
29559.52,44.19,48.66
28102.48,46.48,51.19
28419.24,45.96,50.62
27229.83,47.97,52.83
27287.04,47.87,52.72
28680.77,45.54,50.15
29085.27,44.91,49.46
25580.1,51.06,56.23
27123.35,48.16,53.03
25902.58,50.43,55.53
28173.75,46.36,51.06
